c colouring generated by benchmark framework
p edge 23 71
v 1 2
v 2 1
v 3 4
v 4 0
v 5 2
v 6 3
v 7 3
v 8 0
v 9 0
v 10 2
v 11 1
v 12 4
v 13 1
v 14 4
v 15 4
v 16 1
v 17 2
v 18 3
v 19 3
v 20 3
v 21 2
v 22 4
v 23 0
